Optimize a model with 8091029 rows, 4723818 columns and 28826603 nonzeros
Model has 2450 quadratic objective terms
Coefficient statistics:
  Matrix range    [1e+00, 7e+02]
  Objective range [1e+02, 7e+02]
  Bounds range    [1e+00, 1e+05]
  RHS range       [1e+00, 1e+04]
Presolve removed 45913 rows and 126584 columns (presolve time = 5s) ...
Presolve removed 410591 rows and 286880 columns (presolve time = 11s) ...
Presolve removed 410640 rows and 286880 columns (presolve time = 33s) ...
Presolve removed 410640 rows and 353890 columns (presolve time = 35s) ...
Presolve removed 410640 rows and 353890 columns (presolve time = 40s) ...
Presolve removed 410640 rows and 353890 columns (presolve time = 45s) ...
Presolve removed 410640 rows and 353890 columns (presolve time = 50s) ...
Presolve removed 410640 rows and 353890 columns (presolve time = 55s) ...
Presolve removed 410640 rows and 353890 columns (presolve time = 60s) ...
Presolve removed 410640 rows and 353890 columns (presolve time = 65s) ...
Presolve removed 410640 rows and 353890 columns (presolve time = 70s) ...
Presolve removed 416750 rows and 360000 columns (presolve time = 79s) ...
Presolve removed 477699 rows and 420949 columns (presolve time = 84s) ...
Presolve removed 477699 rows and 420949 columns (presolve time = 85s) ...
Presolve removed 477699 rows and 420949 columns (presolve time = 90s) ...
Presolve removed 477699 rows and 420949 columns (presolve time = 95s) ...
Presolve removed 499725 rows and 420949 columns (presolve time = 102s) ...
Presolve removed 499725 rows and 420949 columns (presolve time = 105s) ...
Presolve removed 499725 rows and 420949 columns (presolve time = 110s) ...
Presolve removed 499725 rows and 420949 columns (presolve time = 115s) ...
Presolve removed 499725 rows and 420949 columns (presolve time = 120s) ...
Presolve removed 499725 rows and 420949 columns (presolve time = 125s) ...
Presolve removed 499725 rows and 420949 columns (presolve time = 130s) ...
Presolve removed 499725 rows and 420949 columns (presolve time = 135s) ...
Presolve removed 499725 rows and 420949 columns (presolve time = 140s) ...
Presolve removed 499725 rows and 420949 columns (presolve time = 145s) ...
Presolve removed 499725 rows and 420949 columns (presolve time = 150s) ...
Presolve removed 499725 rows and 420949 columns (presolve time = 155s) ...
Presolve removed 499725 rows and 420949 columns (presolve time = 160s) ...
Presolve removed 499725 rows and 420949 columns (presolve time = 165s) ...
Presolve removed 499725 rows and 420949 columns (presolve time = 170s) ...
Presolve removed 499725 rows and 420949 columns (presolve time = 175s) ...
Presolve removed 499725 rows and 420949 columns (presolve time = 180s) ...
Presolve removed 499725 rows and 420949 columns (presolve time = 185s) ...
Presolve removed 499725 rows and 420949 columns (presolve time = 190s) ...
Presolve removed 499725 rows and 420949 columns (presolve time = 195s) ...
Presolve removed 499725 rows and 420949 columns (presolve time = 200s) ...
Presolve removed 499725 rows and 420949 columns (presolve time = 205s) ...
Presolve removed 631965 rows and 442123 columns (presolve time = 211s) ...
Presolve removed 653090 rows and 463248 columns (presolve time = 229s) ...
Presolve removed 653090 rows and 560820 columns (presolve time = 230s) ...
Presolve removed 751122 rows and 658852 columns (presolve time = 237s) ...
Presolve removed 943211 rows and 658852 columns (presolve time = 256s) ...
Presolve removed 943211 rows and 658852 columns (presolve time = 263s) ...
Presolve removed 943211 rows and 658852 columns (presolve time = 303s) ...
Presolve removed 943211 rows and 658852 columns (presolve time = 305s) ...
Presolve removed 943211 rows and 658852 columns (presolve time = 310s) ...
Presolve removed 943211 rows and 658852 columns (presolve time = 315s) ...
Presolve removed 943211 rows and 658852 columns (presolve time = 320s) ...
Presolve removed 943211 rows and 658852 columns (presolve time = 325s) ...
Presolve removed 943211 rows and 658852 columns (presolve time = 330s) ...
Presolve removed 943211 rows and 658852 columns (presolve time = 335s) ...
Presolve removed 943211 rows and 658852 columns (presolve time = 340s) ...
Presolve removed 943211 rows and 658852 columns (presolve time = 345s) ...
Presolve removed 943211 rows and 658852 columns (presolve time = 350s) ...
Presolve removed 943211 rows and 658852 columns (presolve time = 355s) ...
Presolve removed 943211 rows and 658852 columns (presolve time = 360s) ...
Presolve removed 943211 rows and 658852 columns (presolve time = 365s) ...
Presolve removed 943211 rows and 658852 columns (presolve time = 370s) ...
Presolve removed 943211 rows and 658852 columns (presolve time = 375s) ...
Presolve removed 943211 rows and 658852 columns (presolve time = 380s) ...
Presolve removed 943211 rows and 658852 columns (presolve time = 385s) ...
Presolve removed 943211 rows and 658852 columns (presolve time = 390s) ...
Presolve removed 943211 rows and 658852 columns (presolve time = 395s) ...
Presolve removed 943211 rows and 658852 columns (presolve time = 400s) ...
Presolve removed 943211 rows and 658852 columns (presolve time = 405s) ...
Presolve removed 943211 rows and 658852 columns (presolve time = 410s) ...
Presolve removed 943211 rows and 658852 columns (presolve time = 415s) ...
Presolve removed 943211 rows and 658852 columns (presolve time = 420s) ...
Presolve removed 943211 rows and 658852 columns (presolve time = 425s) ...
Presolve removed 943211 rows and 658852 columns (presolve time = 430s) ...
Presolve removed 943211 rows and 658852 columns (presolve time = 435s) ...
Presolve removed 943211 rows and 658852 columns (presolve time = 440s) ...
Presolve removed 943211 rows and 658852 columns (presolve time = 445s) ...
Presolve removed 943211 rows and 658852 columns (presolve time = 450s) ...
Presolve removed 943211 rows and 658852 columns (presolve time = 455s) ...
Presolve removed 943211 rows and 658852 columns (presolve time = 460s) ...
Presolve removed 943211 rows and 658852 columns (presolve time = 465s) ...
Presolve removed 943211 rows and 658852 columns (presolve time = 470s) ...
Presolve removed 943211 rows and 658852 columns (presolve time = 475s) ...
Presolve removed 943211 rows and 658852 columns (presolve time = 480s) ...
Presolve removed 943211 rows and 658852 columns (presolve time = 485s) ...
Presolve removed 943211 rows and 658852 columns (presolve time = 490s) ...
Presolve removed 943211 rows and 658852 columns (presolve time = 495s) ...
Presolve removed 943211 rows and 658852 columns (presolve time = 500s) ...
Presolve removed 943211 rows and 658852 columns (presolve time = 505s) ...
Presolve removed 943211 rows and 658852 columns (presolve time = 510s) ...
Presolve removed 943211 rows and 658852 columns (presolve time = 515s) ...
Presolve removed 943211 rows and 658852 columns (presolve time = 520s) ...
Presolve removed 943211 rows and 658852 columns (presolve time = 525s) ...
Presolve removed 943211 rows and 658852 columns (presolve time = 530s) ...
Presolve removed 943211 rows and 658852 columns (presolve time = 535s) ...
Presolve removed 943211 rows and 658852 columns (presolve time = 540s) ...
Presolve removed 943211 rows and 658852 columns (presolve time = 545s) ...
Presolve removed 943211 rows and 658852 columns (presolve time = 550s) ...
Presolve removed 943211 rows and 658852 columns (presolve time = 555s) ...
Presolve removed 943211 rows and 658852 columns (presolve time = 560s) ...
Presolve removed 943211 rows and 658852 columns (presolve time = 565s) ...
Presolve removed 943211 rows and 658852 columns (presolve time = 570s) ...
Presolve removed 943211 rows and 658852 columns (presolve time = 575s) ...
Presolve removed 943211 rows and 658852 columns (presolve time = 580s) ...
Presolve removed 943211 rows and 658852 columns (presolve time = 585s) ...
Presolve removed 943211 rows and 658852 columns (presolve time = 590s) ...
Presolve removed 943211 rows and 658852 columns (presolve time = 595s) ...
Presolve removed 943211 rows and 658852 columns (presolve time = 600s) ...
Presolve removed 943211 rows and 658852 columns (presolve time = 605s) ...
Presolve removed 943211 rows and 658852 columns (presolve time = 610s) ...
Presolve removed 943211 rows and 658852 columns (presolve time = 615s) ...
Presolve removed 943211 rows and 658852 columns (presolve time = 620s) ...
Presolve removed 943211 rows and 658852 columns (presolve time = 625s) ...
Presolve removed 943211 rows and 658852 columns (presolve time = 630s) ...
Presolve removed 943211 rows and 658852 columns (presolve time = 635s) ...
Presolve removed 943211 rows and 658852 columns (presolve time = 640s) ...
Presolve removed 943211 rows and 658852 columns (presolve time = 645s) ...
Presolve removed 943211 rows and 658852 columns (presolve time = 650s) ...
Presolve removed 943211 rows and 658852 columns (presolve time = 655s) ...
Presolve removed 943211 rows and 658852 columns (presolve time = 660s) ...
Presolve removed 943211 rows and 658852 columns (presolve time = 665s) ...
Presolve removed 943211 rows and 658852 columns (presolve time = 670s) ...
Presolve removed 943211 rows and 658852 columns (presolve time = 675s) ...
Presolve removed 943211 rows and 658852 columns (presolve time = 680s) ...
Presolve removed 943211 rows and 658852 columns (presolve time = 685s) ...
Presolve removed 943211 rows and 658852 columns (presolve time = 690s) ...
Presolve removed 943211 rows and 658852 columns (presolve time = 695s) ...
Presolve removed 943211 rows and 658852 columns (presolve time = 700s) ...
Presolve removed 943211 rows and 658852 columns (presolve time = 705s) ...
Presolve removed 943211 rows and 658852 columns (presolve time = 710s) ...
Presolve removed 943211 rows and 658852 columns (presolve time = 715s) ...
Presolve removed 943211 rows and 658852 columns (presolve time = 720s) ...
Presolve removed 943211 rows and 658852 columns (presolve time = 725s) ...
Presolve removed 943211 rows and 658852 columns (presolve time = 730s) ...
Presolve removed 943211 rows and 658852 columns (presolve time = 735s) ...
Presolve removed 943211 rows and 658852 columns (presolve time = 740s) ...
Presolve removed 943211 rows and 658852 columns (presolve time = 745s) ...
Presolve removed 943211 rows and 658852 columns (presolve time = 750s) ...
Presolve removed 943211 rows and 658852 columns (presolve time = 755s) ...
Presolve removed 943211 rows and 658852 columns (presolve time = 760s) ...
Presolve removed 943211 rows and 658852 columns (presolve time = 765s) ...
Presolve removed 943211 rows and 658852 columns (presolve time = 770s) ...
Presolve removed 943211 rows and 658852 columns (presolve time = 775s) ...
Presolve removed 943211 rows and 658852 columns (presolve time = 780s) ...
Presolve removed 943211 rows and 658852 columns (presolve time = 785s) ...
Presolve removed 943211 rows and 658852 columns (presolve time = 790s) ...
Presolve removed 943211 rows and 658852 columns (presolve time = 795s) ...
Presolve removed 943211 rows and 658852 columns (presolve time = 800s) ...
Presolve removed 943211 rows and 658852 columns (presolve time = 805s) ...
Presolve removed 943211 rows and 658852 columns (presolve time = 810s) ...
Presolve removed 943211 rows and 658852 columns (presolve time = 815s) ...
Presolve removed 943211 rows and 658852 columns (presolve time = 820s) ...
Presolve removed 943211 rows and 658852 columns (presolve time = 825s) ...
Presolve removed 943211 rows and 658852 columns (presolve time = 830s) ...
Presolve removed 943211 rows and 658852 columns (presolve time = 835s) ...
Presolve removed 943211 rows and 658852 columns (presolve time = 840s) ...
Presolve removed 943211 rows and 658852 columns (presolve time = 845s) ...
Presolve removed 943211 rows and 658852 columns (presolve time = 850s) ...
Presolve removed 943211 rows and 658852 columns (presolve time = 855s) ...
Presolve removed 943211 rows and 658852 columns (presolve time = 860s) ...
Presolve removed 943211 rows and 658852 columns (presolve time = 865s) ...
Presolve removed 943211 rows and 658852 columns (presolve time = 870s) ...
Presolve removed 943211 rows and 658852 columns (presolve time = 875s) ...
Presolve removed 943211 rows and 658852 columns (presolve time = 880s) ...
Presolve removed 943211 rows and 658852 columns (presolve time = 885s) ...
Presolve removed 943211 rows and 658852 columns (presolve time = 890s) ...
Presolve removed 943211 rows and 658852 columns (presolve time = 895s) ...
Presolve removed 943211 rows and 658852 columns (presolve time = 900s) ...
Presolve removed 943211 rows and 658852 columns (presolve time = 905s) ...
Presolve removed 943211 rows and 658852 columns (presolve time = 910s) ...
Presolve removed 943211 rows and 658852 columns (presolve time = 915s) ...
Presolve removed 943211 rows and 658852 columns (presolve time = 920s) ...
Presolve removed 943211 rows and 658852 columns (presolve time = 925s) ...
